NAME : ClusterId_77 
COMMENT : (Gillet and Johnson) 
TYPE : CVRP 
DIMENSION : 24 
EDGE_WEIGHT_TYPE : EUC_2D 
CAPACITY : 140 
NODE_COORD_SECTION 
77 50 22 
60 64 4 
70 66 8 
71 59 5 
20 66 14 
69 50 4 
37 60 15 
36 54 10 
57 65 27 
15 62 24 
5 55 20 
47 50 15 
13 62 35 
21 44 13 
61 36 6 
29 52 26 
48 48 21 
27 55 34 
45 50 30 
74 40 20 
52 54 38 
28 35 16 
30 43 26 
2 36 26 
DEMAND_SECTION 
77 3270
60 13
70 11
71 3
20 22
69 8
37 14
36 12
57 14
15 8
5 21
47 19
13 12
21 28
61 15
29 13
48 20
27 17
45 21
74 10
52 19
28 29
30 22
2 26
DEPOT_SECTION 
77
 -1
EOF